DATASET = "thpack4";
INSTANCE = "076";

WIDTH = 233;
HEIGHT = 220;
LENGTH = 587;

NO_OF_SHAPES = 10;
size = [|
  77,42,30 |
  98,45,28 |
  61,58,32 |
  92,77,61 |
  58,44,27 |
  108,72,50 |
  93,72,71 |
  111,49,30 |
  79,66,49 |
  85,74,39 |
|];

verticality = [|
  0,1,1 |
  0,1,1 |
  1,1,1 |
  1,1,1 |
  0,1,1 |
  0,1,1 |
  1,1,1 |
  0,1,1 |
  1,1,1 |
  0,1,1 |
|];

box_count = [
  13,
  8,
  11,
  15,
  8,
  15,
  12,
  14,
  9,
  13,
];
